language Essence 1.3

letting boxes be
        partition({1, 2, 4, 8, 11, 16, 22}, {3, 5, 6, 7, 17, 19, 21}, {9, 10, 12, 13, 14, 15, 18, 20}, {23}, {24}, {25})
$ Visualisation for boxes
$  1  2  4  8 11 16 22
$  3  5  6  7 17 19 21
$  9 10 12 13 14 15 18 20
$ 23
$ 24
$ 25

